(set-info :source |printed by MathSAT|)
(declare-fun call__main_.call_hypothese2.flby2 () Int)
(declare-fun avance1 () Bool)
(declare-fun call__main_.call_hypothese2.flby () Bool)
(declare-fun call__main_._H1_ () Bool)
(declare-fun call__main_.call_hypothese.ok () Bool)
(declare-fun call__main_.call_hypothese2.c () Int)
(declare-fun call__main_.nS () Int)
(declare-fun call__main_.call_controleur2.flby () Bool)
(declare-fun retard1 () Bool)
(declare-fun call__main_.call_hypothese2.ok () Bool)
(declare-fun flby2 () Bool)
(declare-fun call__main_.call_controleur2.diff () Int)
(declare-fun diff0 () Int)
(declare-fun call__main_.flby2 () Int)
(declare-fun call__main_.diff0 () Int)
(declare-fun call_Sofar.flby () Bool)
(declare-fun call__main_.call_hypothese.flby () Bool)
(declare-fun call_Sofar.Sofar () Bool)
(declare-fun retard0 () Bool)
(declare-fun nB0 () Int)
(declare-fun call__main_.call_controleur.flby2 () Bool)
(declare-fun call__main_.avance1 () Bool)
(declare-fun call__main_.call_controleur2.avance () Bool)
(declare-fun call__main_.call_controleur.retard () Bool)
(declare-fun flby () Bool)
(declare-fun call__main_._H0_ () Bool)
(declare-fun call__main_.nB0 () Int)
(declare-fun call__main_.avance0 () Bool)
(declare-fun _OK_ () Bool)
(declare-fun call__main_.diff1 () Int)
(declare-fun ast () Bool)
(declare-fun call__main_.call_hypothese.c () Int)
(declare-fun call__main_.flby3 () Int)
(declare-fun call__main_.retard0 () Bool)
(declare-fun call__main_.call_controleur2.retard () Bool)
(declare-fun call__main_.call_controleur.flby () Bool)
(declare-fun call__main_.ast () Bool)
(declare-fun nS () Int)
(declare-fun call__main_.call_controleur.diff () Int)
(declare-fun call__main_.call_controleur.avance () Bool)
(declare-fun avance0 () Bool)
(declare-fun call__main_.nB1 () Int)
(declare-fun nB1 () Int)
(declare-fun diff1 () Int)
(declare-fun call__main_.call_controleur2.flby2 () Bool)
(declare-fun call__main_.flby () Int)
(declare-fun pOK () Bool)
(declare-fun call__main_.retard1 () Bool)
(declare-fun call__main_.call_hypothese.flby2 () Int)
(define-fun .def_677 () Bool (= call_Sofar.flby call_Sofar.Sofar))
(define-fun .def_675 () Bool (= call__main_.call_controleur2.flby2 call__main_.call_controleur2.retard))
(define-fun .def_673 () Bool (= call__main_.call_controleur2.flby call__main_.call_controleur2.avance))
(define-fun .def_668 () Int (* (- 1) call__main_.call_controleur2.diff))
(define-fun .def_656 () Int (* (- 1) call__main_.nS))
(define-fun .def_669 () Int (+ .def_656 .def_668))
(define-fun .def_670 () Int (+ call__main_.nB1 .def_669))
(define-fun .def_671 () Bool (= .def_670 0))
(define-fun .def_663 () Bool (= call__main_.call_controleur.flby2 call__main_.call_controleur.retard))
(define-fun .def_661 () Bool (= call__main_.call_controleur.flby call__main_.call_controleur.avance))
(define-fun .def_655 () Int (* (- 1) call__main_.call_controleur.diff))
(define-fun .def_657 () Int (+ .def_656 .def_655))
(define-fun .def_658 () Int (+ call__main_.nB0 .def_657))
(define-fun .def_659 () Bool (= .def_658 0))
(define-fun .def_650 () Bool (= call__main_.call_hypothese2.flby2 call__main_.call_hypothese2.c))
(define-fun .def_647 () Bool (= call__main_.call_hypothese2.flby call__main_.call_hypothese2.ok))
(define-fun .def_645 () Bool (= call__main_.call_hypothese.flby2 call__main_.call_hypothese.c))
(define-fun .def_642 () Bool (= call__main_.call_hypothese.flby call__main_.call_hypothese.ok))
(define-fun .def_640 () Bool (= call__main_._H1_ call__main_.call_hypothese2.ok))
(define-fun .def_637 () Bool (= call__main_._H0_ call__main_.call_hypothese.ok))
(define-fun .def_634 () Bool (= call__main_.retard1 call__main_.call_controleur2.retard))
(define-fun .def_631 () Bool (= call__main_.retard0 call__main_.call_controleur.retard))
(define-fun .def_628 () Bool (= call__main_.avance1 call__main_.call_controleur2.avance))
(define-fun .def_625 () Bool (= call__main_.avance0 call__main_.call_controleur.avance))
(define-fun .def_622 () Bool (= call__main_.diff1 call__main_.call_controleur2.diff))
(define-fun .def_619 () Bool (= call__main_.diff0 call__main_.call_controleur.diff))
(define-fun .def_616 () Bool (= call__main_.flby3 call__main_.nS))
(define-fun .def_614 () Bool (= call__main_.flby2 call__main_.nB1))
(define-fun .def_612 () Bool (= call__main_.flby call__main_.nB0))
(define-fun .def_609 () Bool (and call__main_._H0_ call__main_._H1_))
(define-fun .def_610 () Bool (= call__main_.ast .def_609))
(define-fun .def_605 () Bool (= ast call__main_.ast))
(define-fun .def_602 () Bool (= flby pOK))
(define-fun .def_599 () Bool (= retard1 call__main_.retard1))
(define-fun .def_595 () Bool (= retard0 call__main_.retard0))
(define-fun .def_591 () Bool (= avance1 call__main_.avance1))
(define-fun .def_587 () Bool (= avance0 call__main_.avance0))
(define-fun .def_583 () Bool (= diff1 call__main_.diff1))
(define-fun .def_579 () Bool (= diff0 call__main_.diff0))
(define-fun .def_576 () Bool (= nS call__main_.nS))
(define-fun .def_573 () Bool (= nB1 call__main_.nB1))
(define-fun .def_570 () Bool (= nB0 call__main_.nB0))
(define-fun .def_566 () Bool (not call_Sofar.Sofar))
(define-fun .def_567 () Bool (or flby2 .def_566))
(define-fun .def_568 () Bool (= _OK_ .def_567))
(define-fun .def_571 () Bool (and .def_568 .def_570))
(define-fun .def_574 () Bool (and .def_571 .def_573))
(define-fun .def_577 () Bool (and .def_574 .def_576))
(define-fun .def_580 () Bool (and .def_577 .def_579))
(define-fun .def_584 () Bool (and .def_580 .def_583))
(define-fun .def_588 () Bool (and .def_584 .def_587))
(define-fun .def_592 () Bool (and .def_588 .def_591))
(define-fun .def_596 () Bool (and .def_592 .def_595))
(define-fun .def_600 () Bool (and .def_596 .def_599))
(define-fun .def_603 () Bool (and .def_600 .def_602))
(define-fun .def_606 () Bool (and .def_603 .def_605))
(define-fun .def_611 () Bool (and .def_606 .def_610))
(define-fun .def_613 () Bool (and .def_611 .def_612))
(define-fun .def_615 () Bool (and .def_613 .def_614))
(define-fun .def_617 () Bool (and .def_615 .def_616))
(define-fun .def_620 () Bool (and .def_617 .def_619))
(define-fun .def_623 () Bool (and .def_620 .def_622))
(define-fun .def_626 () Bool (and .def_623 .def_625))
(define-fun .def_629 () Bool (and .def_626 .def_628))
(define-fun .def_632 () Bool (and .def_629 .def_631))
(define-fun .def_635 () Bool (and .def_632 .def_634))
(define-fun .def_638 () Bool (and .def_635 .def_637))
(define-fun .def_641 () Bool (and .def_638 .def_640))
(define-fun .def_643 () Bool (and .def_641 .def_642))
(define-fun .def_646 () Bool (and .def_643 .def_645))
(define-fun .def_648 () Bool (and .def_646 .def_647))
(define-fun .def_651 () Bool (and .def_648 .def_650))
(define-fun .def_660 () Bool (and .def_651 .def_659))
(define-fun .def_662 () Bool (and .def_660 .def_661))
(define-fun .def_664 () Bool (and .def_662 .def_663))
(define-fun .def_672 () Bool (and .def_664 .def_671))
(define-fun .def_674 () Bool (and .def_672 .def_673))
(define-fun .def_676 () Bool (and .def_674 .def_675))
(define-fun .def_678 () Bool (and .def_676 .def_677))
(define-fun .def_561 () Bool (not call__main_.call_controleur2.flby2))
(define-fun .def_558 () Bool (not call__main_.call_controleur2.flby))
(define-fun .def_555 () Bool (not call__main_.call_controleur.flby2))
(define-fun .def_552 () Bool (not call__main_.call_controleur.flby))
(define-fun .def_549 () Bool (= call__main_.call_hypothese2.flby2 0))
(define-fun .def_544 () Bool (= call__main_.call_hypothese.flby2 0))
(define-fun .def_539 () Bool (= call__main_.flby3 0))
(define-fun .def_536 () Bool (= call__main_.flby2 0))
(define-fun .def_533 () Bool (= call__main_.flby 0))
(define-fun .def_531 () Bool (and flby2 flby))
(define-fun .def_534 () Bool (and .def_531 .def_533))
(define-fun .def_537 () Bool (and .def_534 .def_536))
(define-fun .def_540 () Bool (and .def_537 .def_539))
(define-fun .def_542 () Bool (and .def_540 call__main_.call_hypothese.flby))
(define-fun .def_545 () Bool (and .def_542 .def_544))
(define-fun .def_547 () Bool (and .def_545 call__main_.call_hypothese2.flby))
(define-fun .def_550 () Bool (and .def_547 .def_549))
(define-fun .def_553 () Bool (and .def_550 .def_552))
(define-fun .def_556 () Bool (and .def_553 .def_555))
(define-fun .def_559 () Bool (and .def_556 .def_558))
(define-fun .def_562 () Bool (and .def_559 .def_561))
(define-fun .def_524 () Bool (<= 32767 diff0))
(define-fun .def_525 () Bool (not .def_524))
(define-fun .def_520 () Bool (<= 1 nS))
(define-fun .def_521 () Bool (not .def_520))
(define-fun .def_516 () Bool (<= 1 nB1))
(define-fun .def_517 () Bool (not .def_516))
(define-fun .def_511 () Bool (<= 1 nB0))
(define-fun .def_512 () Bool (not .def_511))
(define-fun .def_514 () Bool (and .def_512 ast))
(define-fun .def_518 () Bool (and .def_514 .def_517))
(define-fun .def_522 () Bool (and .def_518 .def_521))
(define-fun .def_526 () Bool (and .def_522 .def_525))
(define-fun .def_528 () Bool (= .def_526 call_Sofar.flby))
(define-fun .def_563 () Bool (and .def_528 .def_562))
(define-fun .def_679 () Bool (and .def_563 .def_678))
(assert .def_679)
